46
100
70	1
69	1
67	2
66	1
65	2
64	4
63	2
62	1
61	1
60	2
59	2
58	4
57	1
56	2
55	1
54	1
53	3
52	5
51	2
49	1
48	2
47	3
46	1
45	4
44	1
43	3
42	3
41	4
40	2
38	3
37	2
36	1
35	5
34	2
33	4
31	4
30	2
29	3
28	2
26	2
25	2
24	1
23	1
22	2
21	1
20	1
